6 6 1 
0.000000000000 0.000000000000 0.000000000000 
0.000000000000 0.000000000000 0.000000000000 
 1.297674929780516E+001  0.000000000000000E+000  0.000000000000000E+000
 -6.488374648902582E+000  1.123819370424496E+001  0.000000000000000E+000
 0.000000000000000E+000  0.000000000000000E+000  3.401507024326386E+001
8
 1 -6.488374465398814E-009  7.492129139909370E+000  1.285014520635974E-002
 1 6.488374655390957E+000  3.746064564335589E+000  3.400222023411779E+001
 0 -1.940088774000868E+000  1.122474516012658E+001  3.105936758681159E+001
 0 -2.262496434723570E+000  3.945655098048659E+000  3.105936758681159E+001
 0 4.202584916747578E+000  7.305987161552875E+000  3.105936758681159E+001
 0 8.428463546182568E+000  1.344833059270288E-002  2.955701636000163E+000
 0 8.750870811114416E+000  7.292538606196298E+000  2.955701636000163E+000
 0 2.285789537503764E+000  3.932206879837894E+000  2.955701636000163E+000
45 45 120
.false.
.false.
.false.
.false.
