6 6 1 
0.000000000000 0.000000000000 0.000000000000 
0.001000000000 0.000000000000 0.000000000000 
 1.297674929780516E+001  0.000000000000000E+000  0.000000000000000E+000
 -6.488374648902582E+000  1.123819370424496E+001  0.000000000000000E+000
 0.000000000000000E+000  0.000000000000000E+000  3.401507024326386E+001
8
 0 -6.488374465398813E-009  7.492129139909368E+000  1.285014520635973E-002
 0 6.488374655390955E+000  3.746064564335588E+000  3.400222023411778E+001
 1 -1.940088774000867E+000  1.122474516012657E+001  3.105936758681159E+001
 1 -2.262496434723570E+000  3.945655098048658E+000  3.105936758681159E+001
 1 4.202584916747577E+000  7.305987161552873E+000  3.105936758681159E+001
 1 8.428463546182565E+000  1.344833059270288E-002  2.955701636000162E+000
 1 8.750870811114414E+000  7.292538606196296E+000  2.955701636000162E+000
 1 2.285789537503764E+000  3.932206879837892E+000  2.955701636000162E+000
45 45 120
.false.
.false.
.false.
.false.
